c nombre: 18
c densidad: 0.1
p edges 60 193
e 1 20
e 1 46
e 1 50
e 2 5
e 2 12
e 2 22
e 2 30
e 2 31
e 2 41
e 2 49
e 2 51
e 3 17
e 3 22
e 3 25
e 3 26
e 3 27
e 3 35
e 3 39
e 4 6
e 4 23
e 4 27
e 4 37
e 4 54
e 5 6
e 5 8
e 5 9
e 5 16
e 5 25
e 5 31
e 5 32
e 5 44
e 5 50
e 5 52
e 6 11
e 6 28
e 6 38
e 6 39
e 6 42
e 6 43
e 6 53
e 7 46
e 7 48
e 7 50
e 7 52
e 7 54
e 7 60
e 8 13
e 8 23
e 8 29
e 8 43
e 9 12
e 9 25
e 9 36
e 9 45
e 10 30
e 10 35
e 10 46
e 11 31
e 11 36
e 11 51
e 12 13
e 12 21
e 12 39
e 12 40
e 13 25
e 13 38
e 13 39
e 13 45
e 13 56
e 13 57
e 14 17
e 14 19
e 14 33
e 14 39
e 14 46
e 14 52
e 14 56
e 15 20
e 15 23
e 15 50
e 15 59
e 16 25
e 16 33
e 17 18
e 17 28
e 17 39
e 17 42
e 17 46
e 17 49
e 17 56
e 17 59
e 18 21
e 18 30
e 18 40
e 18 51
e 18 57
e 19 21
e 19 25
e 19 27
e 19 30
e 19 34
e 19 53
e 20 38
e 20 39
e 20 47
e 21 27
e 21 29
e 21 30
e 21 42
e 21 44
e 21 48
e 21 49
e 21 59
e 22 30
e 22 36
e 22 47
e 23 29
e 23 40
e 23 58
e 24 36
e 24 50
e 24 59
e 25 34
e 25 47
e 26 33
e 26 35
e 26 40
e 26 41
e 27 29
e 27 35
e 27 37
e 27 38
e 27 48
e 27 49
e 27 57
e 28 53
e 28 57
e 29 30
e 29 31
e 29 56
e 30 33
e 30 34
e 30 41
e 30 47
e 30 49
e 30 50
e 31 54
e 31 56
e 31 58
e 31 60
e 32 35
e 34 38
e 34 45
e 34 48
e 34 49
e 35 38
e 35 52
e 35 60
e 36 41
e 36 48
e 36 55
e 37 39
e 37 51
e 37 55
e 38 40
e 38 44
e 38 59
e 39 44
e 39 46
e 39 53
e 39 60
e 40 60
e 41 42
e 41 56
e 42 48
e 42 60
e 43 48
e 44 48
e 44 49
e 45 52
e 46 56
e 47 50
e 48 57
e 48 59
e 49 51
e 50 58
e 50 59
e 52 58
e 54 55
e 54 57
e 54 60
e 56 58
e 59 60
